
Gurobi 10.0.1 (linux64) logging started Sun Nov 26 16:35:05 2023

Set parameter LogFile to value "ArtificialInstance/ExperimentV2/S3T4K3/BaSp/gurobi91.txt"
Gurobi Optimizer version 10.0.1 build v10.0.1rc0 (linux64)

CPU model: AMD EPYC 7H12 64-Core Processor, instruction set [SSE2|AVX|AVX2]
Thread count: 128 physical cores, 128 logical processors, using up to 32 threads

Academic license 656792 - for non-commercial use only - registered to b.___@student.vu.nl
Optimize a model with 4020 rows, 6080 columns and 20640 nonzeros
Model fingerprint: 0x6e3e9702
Variable types: 0 continuous, 6080 integer (6080 binary)
Coefficient statistics:
  Matrix range     [1e+00, 1e+00]
  Objective range  [1e+00, 2e+01]
  Bounds range     [1e+00, 1e+00]
  RHS range        [1e+00, 1e+00]
Presolve time: 0.03s
Presolved: 4020 rows, 6080 columns, 20640 nonzeros
Variable types: 0 continuous, 6080 integer (6080 binary)
Found heuristic solution: objective 641.0328958
Found heuristic solution: objective 319.7404238

Root relaxation: objective 5.261300e+01, 3066 iterations, 0.10 seconds (0.11 work units)

    Nodes    |    Current Node    |     Objective Bounds      |     Work
 Expl Unexpl |  Obj  Depth IntInf | Incumbent    BestBd   Gap | It/Node Time

     0     0   52.61300    0  882  319.74042   52.61300  83.5%     -    0s
H    0     0                     313.1433139   52.61300  83.2%     -    0s
H    0     0                     285.1458373   52.61300  81.5%     -    0s
H    0     0                     102.1109866   52.61300  48.5%     -    0s
     0     0   57.55807    0 1081  102.11099   57.55807  43.6%     -    0s
H    0     0                      91.1036865   57.55807  36.8%     -    0s
     0     0   63.17050    0 1187   91.10369   63.17050  30.7%     -    0s
     0     0   63.17050    0 1187   91.10369   63.17050  30.7%     -    0s
     0     0   64.29597    0 1218   91.10369   64.29597  29.4%     -    0s
     0     0   64.30747    0 1053   91.10369   64.30747  29.4%     -    1s
     0     0   64.30865    0 1215   91.10369   64.30865  29.4%     -    1s
     0     0   65.69219    0 1120   91.10369   65.69219  27.9%     -    1s
     0     0   65.75521    0 1152   91.10369   65.75521  27.8%     -    1s
     0     0   65.75521    0 1159   91.10369   65.75521  27.8%     -    1s
H    0     0                      90.4715763   66.42239  26.6%     -    1s
H    0     0                      87.9361277   66.42239  24.5%     -    1s
     0     0   66.42239    0 1019   87.93613   66.42239  24.5%     -    1s
     0     0   67.00979    0 1239   87.93613   67.00979  23.8%     -    1s
     0     0   67.01891    0 1113   87.93613   67.01891  23.8%     -    1s
     0     0   67.01891    0 1116   87.93613   67.01891  23.8%     -    1s
     0     0   67.10184    0 1140   87.93613   67.10184  23.7%     -    1s
H    0     0                      80.1715334   67.13907  16.3%     -    1s
     0     0   67.13907    0 1201   80.17153   67.13907  16.3%     -    1s
     0     0   67.14015    0 1206   80.17153   67.14015  16.3%     -    2s
     0     0   67.19166    0 1249   80.17153   67.19166  16.2%     -    2s
H    0     0                      80.1715315   67.19166  16.2%     -    2s
     0     0   67.22737    0 1183   80.17153   67.22737  16.1%     -    2s
     0     0   67.25297    0 1224   80.17153   67.25297  16.1%     -    2s
     0     0   67.25301    0 1226   80.17153   67.25301  16.1%     -    2s
     0     0   67.25377    0 1252   80.17153   67.25377  16.1%     -    2s
     0     0   67.25410    0 1253   80.17153   67.25410  16.1%     -    2s
     0     0   67.25424    0 1252   80.17153   67.25424  16.1%     -    2s
     0     0   67.25656    0 1302   80.17153   67.25656  16.1%     -    2s
     0     0   67.30140    0 1289   80.17153   67.30140  16.1%     -    2s
     0     0   67.30140    0 1147   80.17153   67.30140  16.1%     -    2s
     0     2   67.30140    0 1141   80.17153   67.30140  16.1%     -    3s
H   31    50                      80.1715241   68.84682  14.1%   779    4s
H   42    50                      78.3956831   68.86829  12.2%   657    4s
   300    94   76.27382   13  630   78.39568   69.48171  11.4%   328    5s

Cutting planes:
  Gomory: 12
  Zero half: 231
  RLT: 175

Explored 994 nodes (233048 simplex iterations) in 6.55 seconds (5.90 work units)
Thread count was 32 (of 128 available processors)

Solution count 10: 78.3957 80.1715 87.9361 ... 641.033

Optimal solution found (tolerance 1.00e-04)
Best objective 7.839568310690e+01, best bound 7.839568310690e+01, gap 0.0000%
